1	12	1	8	29	100	0	0	0	0	0	0
2000	1	0	0	0	0	0	0	0	0	0	0
250	1	0	187.87	0.16	1	0	0	0	0	0	0
250	1	0	187.87	0.16	1	0	0	0	0	0	0
250	1	0	187.87	0.16	1	0	0	0	0	0	0
250	1	0	187.87	0.16	1	0	0	0	0	0	0
250	1	0	187.87	0.16	1	0	0	0	0	0	0
250	1	0	187.87	0.16	1	0	0	0	0	0	0
250	1	0	187.87	0.16	1	0	0	0	0	0	0
250	1	0	187.87	0.16	1	0	0	0	0	0	0
250	1	0	187.87	0.16	1	0	0	0	0	0	0
250	1	0	187.87	0.16	1	0	0	0	0	0	0
250	1	0	187.87	0.16	1	0	0	0	0	0	0
250	1	0	187.87	0.16	1	0	0	0	0	0	0
50	150	0	0	0	0	1000	0	0	99999	0	0
25	25	0	0	0	0	1000	0	0	99999	0	0
50	25	0	0	0	0	1000	0	0	99999	0	0
75	25	0	0	0	0	1000	0	0	99999	0	0
25	50	0	0	0	0	1000	0	0	99999	0	0
75	50	0	0	0	0	1000	0	0	99999	0	0
25	75	0	0	0	0	1000	0	0	99999	0	0
50	75	0	0	0	0	1000	0	0	99999	0	0
75	75	0	0	0	0	1000	0	0	99999	0	0
25	25	0	0	0	0	1000	0	0	0	0	0
50	25	0	0	0	0	1000	0	0	0	0	0
75	25	0	0	0	0	1000	0	0	0	0	0
25	50	0	0	0	0	1000	0	0	0	0	0
75	50	0	0	0	0	1000	0	0	0	0	0
25	75	0	0	0	0	1000	0	0	0	0	0
50	75	0	0	0	0	1000	0	0	0	0	0
75	75	0	0	0	0	1000	0	0	0	0	0
35      35      0       0       0       0       230     0       0       0       0       0
61      37      0       0       0       0       230     0       0       0       0       0
74      39      0       0       0       0       230     0       0       0       0       0
47      57      0       0       0       0       230     0       0       0       0       0
57      65      0       0       0       0       230     0       0       0       0       0
29      59      0       0       0       0       230     0       0       0       0       0
34      71      0       0       0       0       230     0       0       0       0       0
22      58      0       0       0       0       230     0       0       0       0       0
7	61	0	0	0	0	1000	0	0	0	0	0
18	41	0	0	0	0	1000	0	0	0	0	0
5	39	0	0	0	0	1000	0	0	0	0	0
14	20	0	0	0	0	1000	0	0	0	0	0
0	26	0	0	0	0	1000	0	0	0	0	0
24	25	0	0	0	0	1000	0	0	0	0	0
26	6	0	0	0	0	1000	0	0	0	0	0
34	20	0	0	0	0	1000	0	0	0	0	0
41	5	0	0	0	0	1000	0	0	0	0	0
50	9	0	0	0	0	1000	0	0	0	0	0
61	14	0	0	0	0	1000	0	0	0	0	0
62	21	0	0	0	0	1000	0	0	0	0	0
74	30	0	0	0	0	1000	0	0	0	0	0
41	49	10	8	2	132	306	10	0	0	0	0
35	17	7	3	4	134	683	10	0	0	0	0
55	45	13	11	2	177	1083	10	0	0	0	0
55	20	19	7	12	843	973	10	0	0	0	0
15	30	26	13	13	137	763	10	0	0	0	0
25	30	3	3	0	460	1036	10	0	0	0	0
20	50	5	2	3	138	275	10	0	0	0	0
10	43	9	2	7	143	550	10	0	0	0	0
55	60	16	15	1	487	1003	10	0	0	0	0
30	60	16	8	8	603	905	10	0	0	0	0
20	65	12	4	8	685	1069	10	0	0	0	0
50	35	19	13	6	926	1090	10	0	0	0	0
30	25	23	19	4	128	514	10	0	0	0	0
15	10	20	13	7	149	595	10	0	0	0	0
30	5	8	1	7	827	1075	10	0	0	0	0
10	20	19	10	9	469	955	10	0	0	0	0
5	30	2	0	2	776	1060	10	0	0	0	0
20	40	12	6	6	412	736	10	0	0	0	0
15	60	17	4	13	194	634	10	0	0	0	0
45	65	9	6	3	740	940	10	0	0	0	0
45	20	11	5	6	135	672	10	0	0	0	0
45	10	18	4	14	690	1079	10	0	0	0	0
55	5	29	3	26	153	891	10	0	0	0	0
65	35	3	2	1	751	1076	10	0	0	0	0
65	20	6	2	4	150	492	10	0	0	0	0
45	30	17	11	6	128	505	10	0	0	0	0
35	40	16	14	2	139	869	10	0	0	0	0
41	37	16	14	2	298	786	10	0	0	0	0
64	42	9	6	3	739	1076	10	0	0	0	0
40	60	21	14	7	534	846	10	0	0	0	0
31	52	27	16	11	134	1088	10	0	0	0	0
35	69	23	12	11	413	793	10	0	0	0	0
53	52	11	11	0	141	759	10	0	0	0	0
65	55	14	12	2	153	589	10	0	0	0	0
63	65	8	8	0	392	1064	10	0	0	0	0
2	60	5	0	5	652	1064	10	0	0	0	0
20	20	8	8	0	338	1072	10	0	0	0	0
5	5	16	16	0	506	1046	10	0	0	0	0
60	12	31	6	25	177	779	10	0	0	0	0
40	25	9	6	3	776	1018	10	0	0	0	0
42	7	5	1	4	636	1077	10	0	0	0	0
24	12	5	3	2	142	298	10	0	0	0	0
23	3	7	1	6	223	949	10	0	0	0	0
11	14	18	14	4	525	999	10	0	0	0	0
6	38	16	3	13	330	1076	10	0	0	0	0
2	48	1	0	1	152	628	10	0	0	0	0
8	56	27	4	23	542	1071	10	0	0	0	0
13	52	36	9	27	356	852	10	0	0	0	0
6	68	30	3	27	662	1062	10	0	0	0	0
47	47	13	13	0	561	777	10	0	0	0	0
49	58	10	8	2	634	1079	10	0	0	0	0
27	43	9	6	3	128	744	10	0	0	0	0
37	31	14	12	2	354	782	10	0	0	0	0
57	29	18	9	9	139	528	10	0	0	0	0
63	23	2	1	1	277	965	10	0	0	0	0
53	12	6	1	5	500	1076	10	0	0	0	0
32	12	7	3	4	464	826	10	0	0	0	0
36	26	18	13	5	391	755	10	0	0	0	0
21	24	28	25	3	134	527	10	0	0	0	0
17	34	3	2	1	542	1000	10	0	0	0	0
12	24	13	7	6	142	1080	10	0	0	0	0
24	58	19	8	11	676	1080	10	0	0	0	0
27	69	10	4	6	419	1071	10	0	0	0	0
15	77	9	2	7	747	1025	10	0	0	0	0
62	77	20	16	4	166	441	10	0	0	0	0
49	73	25	17	8	505	1065	10	0	0	0	0
67	5	25	2	23	160	599	10	0	0	0	0
56	39	36	25	11	235	781	10	0	0	0	0
37	47	6	5	1	442	850	10	0	0	0	0
37	56	5	3	2	138	388	10	0	0	0	0
57	68	15	13	2	779	959	10	0	0	0	0
47	16	25	9	16	139	684	10	0	0	0	0
44	17	9	3	6	925	1085	10	0	0	0	0
46	13	8	2	6	502	734	10	0	0	0	0
49	11	18	4	14	575	829	10	0	0	0	0
49	42	13	11	2	185	619	10	0	0	0	0
53	43	14	11	3	136	623	10	0	0	0	0
61	52	3	3	0	148	885	10	0	0	0	0
57	48	23	19	4	142	541	10	0	0	0	0
56	37	6	4	2	138	772	10	0	0	0	0
55	54	26	26	0	144	464	10	0	0	0	0
15	47	16	5	11	720	1012	10	0	0	0	0
14	37	11	4	7	500	954	10	0	0	0	0
11	31	7	2	5	262	732	10	0	0	0	0
16	22	41	30	11	267	1082	10	0	0	0	0
4	18	35	8	27	988	1068	10	0	0	0	0
28	18	26	17	9	665	665	10	0	0	0	0
26	52	9	5	4	240	774	10	0	0	0	0
26	35	15	11	4	470	1014	10	0	0	0	0
31	67	3	1	2	559	841	10	0	0	0	0
15	19	1	1	0	361	951	10	0	0	0	0
22	22	2	2	0	135	852	10	0	0	0	0
18	24	22	17	5	654	786	10	0	0	0	0
26	27	27	26	1	546	862	10	0	0	0	0
25	24	20	19	1	131	774	10	0	0	0	0
22	27	11	9	2	975	1079	10	0	0	0	0
25	21	12	10	2	674	760	10	0	0	0	0
19	21	10	9	1	420	778	10	0	0	0	0
20	26	9	7	2	157	369	10	0	0	0	0
18	18	17	17	0	249	249	10	0	0	0	0
